m = 8; % number of couriers
n = 9; % number of packages

l = [15, 20, 20, 16, 16, 25, 24, 18]; % maximum carriable weight per courier
s = [15, 6, 10, 8, 10, 14, 9, 14, 12]; % weight of each package

D = % distance matrix 
	 [| 12, 13, 14, 15, 14, 9, 15, 6, 13, 9
	 | 11, 15, 18, 11, 10, 6, 19, 14, 6, 11
	 | 6, 13, 19, 11, 20, 18, 10, 11, 19, 18
	 | 19, 16, 8, 6, 9, 9, 18, 15, 8, 20
	 | 6, 5, 20, 18, 20, 18, 17, 18, 13, 17
	 | 20, 9, 16, 9, 8, 10, 11, 7, 13, 6
	 | 20, 20, 15, 11, 9, 10, 18, 17, 15, 19
	 | 13, 20, 15, 14, 15, 5, 17, 7, 13, 9
	 | 13, 17, 11, 5, 13, 12, 8, 19, 7, 6
	 | 9, 5, 9, 18, 18, 9, 20, 5, 14, 16
	 |];